nrow = 6;
ncol = 6;

start_row = 1;
start_col = 6;

delay = [ 1, 9, 3, 1, 2 ];
timelimit = 22;

terrain = [| F, P, P, R, F, F
           | P, M, M, F, M, F
           | P, M, P, F, F, P
           | P, R, P, M, M, F
           | P, M, P, F, P, F
           | P, F, P, F, P, F |];

Jin = [| false, false, false, false, false, false
       | false, false, false, false, false, false
       | false, false, false, false, false, false
       | false, false, false, false, false, false
       | false, false, false, false, false, false
       | true,  false, false, false, false, false |];

soldier = [| 1,3,4,2,1,3
           | 3,1,2,5,1,3
           | 1,2,4,3,1,2
           | 4,3,2,1,4,1
           | 1,5,0,2,4,1
           | 1,1,1,0,3,7 |];

maxstep = 20;